out/production/KConstraintMultipleKnapsackProblem/zimpl/lpfiles/knapsack50nr4.lp
\ This file was automatically generated by Zimpl
\ param file := "instances/knapsack50nr4.txt";
\ param n := read file as "1n" use 1 comment "#";
\ do print n;
\ param m := read file as "1n" skip 1 use 1 comment "#";
\ do print m;
\ param k := read file as "1n" skip 2 use 1 comment "#";
\ do print k;
\ set Items := {1 to n};
\ set Knapsacks := {1 to m};
\ set Capacities := {1 to k};
\ param p[Items] := read file as "1n" skip 3 use n comment "#";
\ param w[Items*Capacities] := read file as "n+" skip 3+n use n comment "#";
\ param c[Knapsacks*Capacities] := read file as "n+" skip 3+2*n use m comment "#";
\ var x[Knapsacks * Items] binary;
\ maximize profit: sum <i> in Knapsacks: sum <j> in Items: p[j]* x[i,j];
\ subto cap: forall <i> in Knapsacks: forall <h> in Capacities: sum <j> in Items: w[j,h]*x[i,j] <= c[i,h];
\ subto one: forall <j> in Items: sum <i> in Knapsacks: x[i,j] <= 1;
\Problem name: zimplfiles/knapsack50nr4.zpl
Maximize
 profit:  +57 x#1#1 +36 x#1#2 +21 x#1#3 +24 x#1#4 +10 x#1#5 +57 x#1#6
  +43 x#1#7 +48 x#1#8 +59 x#1#9 +42 x#1#10 +74 x#1#11 +59 x#1#12
  +77 x#1#13 +50 x#1#14 +26 x#1#15 +8 x#1#16 +96 x#1#17 +60 x#1#18
  +84 x#1#19 +4 x#1#20 +42 x#1#21 +2 x#1#22 +77 x#1#23 +62 x#1#24
  +75 x#1#25 +31 x#1#26 +31 x#1#27 +11 x#1#28 +2 x#1#29 +45 x#1#30
  +9 x#1#31 +88 x#1#32 +60 x#1#33 + x#1#34 +11 x#1#35 +5 x#1#36
  +62 x#1#37 +57 x#1#38 +45 x#1#39 +75 x#1#40 +63 x#1#41 +78 x#1#42
  +30 x#1#43 +86 x#1#44 +37 x#1#45 +67 x#1#46 +30 x#1#47 +77 x#1#48
  +69 x#1#49 +41 x#1#50 +57 x#2#1 +36 x#2#2 +21 x#2#3 +24 x#2#4
  +10 x#2#5 +57 x#2#6 +43 x#2#7 +48 x#2#8 +59 x#2#9 +42 x#2#10
  +74 x#2#11 +59 x#2#12 +77 x#2#13 +50 x#2#14 +26 x#2#15 +8 x#2#16
  +96 x#2#17 +60 x#2#18 +84 x#2#19 +4 x#2#20 +42 x#2#21 +2 x#2#22
  +77 x#2#23 +62 x#2#24 +75 x#2#25 +31 x#2#26 +31 x#2#27 +11 x#2#28
  +2 x#2#29 +45 x#2#30 +9 x#2#31 +88 x#2#32 +60 x#2#33 + x#2#34
  +11 x#2#35 +5 x#2#36 +62 x#2#37 +57 x#2#38 +45 x#2#39 +75 x#2#40
  +63 x#2#41 +78 x#2#42 +30 x#2#43 +86 x#2#44 +37 x#2#45 +67 x#2#46
  +30 x#2#47 +77 x#2#48 +69 x#2#49 +41 x#2#50 +57 x#3#1 +36 x#3#2
  +21 x#3#3 +24 x#3#4 +10 x#3#5 +57 x#3#6 +43 x#3#7 +48 x#3#8
  +59 x#3#9 +42 x#3#10 +74 x#3#11 +59 x#3#12 +77 x#3#13 +50 x#3#14
  +26 x#3#15 +8 x#3#16 +96 x#3#17 +60 x#3#18 +84 x#3#19 +4 x#3#20
  +42 x#3#21 +2 x#3#22 +77 x#3#23 +62 x#3#24 +75 x#3#25 +31 x#3#26
  +31 x#3#27 +11 x#3#28 +2 x#3#29 +45 x#3#30 +9 x#3#31 +88 x#3#32
  +60 x#3#33 + x#3#34 +11 x#3#35 +5 x#3#36 +62 x#3#37 +57 x#3#38
  +45 x#3#39 +75 x#3#40 +63 x#3#41 +78 x#3#42 +30 x#3#43 +86 x#3#44
  +37 x#3#45 +67 x#3#46 +30 x#3#47 +77 x#3#48 +69 x#3#49 +41 x#3#50
  +57 x#4#1 +36 x#4#2 +21 x#4#3 +24 x#4#4 +10 x#4#5 +57 x#4#6
  +43 x#4#7 +48 x#4#8 +59 x#4#9 +42 x#4#10 +74 x#4#11 +59 x#4#12
  +77 x#4#13 +50 x#4#14 +26 x#4#15 +8 x#4#16 +96 x#4#17 +60 x#4#18
  +84 x#4#19 +4 x#4#20 +42 x#4#21 +2 x#4#22 +77 x#4#23 +62 x#4#24
  +75 x#4#25 +31 x#4#26 +31 x#4#27 +11 x#4#28 +2 x#4#29 +45 x#4#30
  +9 x#4#31 +88 x#4#32 +60 x#4#33 + x#4#34 +11 x#4#35 +5 x#4#36
  +62 x#4#37 +57 x#4#38 +45 x#4#39 +75 x#4#40 +63 x#4#41 +78 x#4#42
  +30 x#4#43 +86 x#4#44 +37 x#4#45 +67 x#4#46 +30 x#4#47 +77 x#4#48
  +69 x#4#49 +41 x#4#50 +57 x#5#1 +36 x#5#2 +21 x#5#3 +24 x#5#4
  +10 x#5#5 +57 x#5#6 +43 x#5#7 +48 x#5#8 +59 x#5#9 +42 x#5#10
  +74 x#5#11 +59 x#5#12 +77 x#5#13 +50 x#5#14 +26 x#5#15 +8 x#5#16
  +96 x#5#17 +60 x#5#18 +84 x#5#19 +4 x#5#20 +42 x#5#21 +2 x#5#22
  +77 x#5#23 +62 x#5#24 +75 x#5#25 +31 x#5#26 +31 x#5#27 +11 x#5#28
  +2 x#5#29 +45 x#5#30 +9 x#5#31 +88 x#5#32 +60 x#5#33 + x#5#34
  +11 x#5#35 +5 x#5#36 +62 x#5#37 +57 x#5#38 +45 x#5#39 +75 x#5#40
  +63 x#5#41 +78 x#5#42 +30 x#5#43 +86 x#5#44 +37 x#5#45 +67 x#5#46
  +30 x#5#47 +77 x#5#48 +69 x#5#49 +41 x#5#50
Subject to
 cap_1:
  +9 x#1#50 +62 x#1#49 +53 x#1#48 +89 x#1#47 +85 x#1#46 +3 x#1#45
  +39 x#1#44 +93 x#1#43 +56 x#1#42 +20 x#1#41 +28 x#1#40 +39 x#1#39
  +87 x#1#38 +89 x#1#37 +92 x#1#36 +43 x#1#35 +71 x#1#34 +47 x#1#33
  +95 x#1#32 +34 x#1#31 +72 x#1#30 +24 x#1#29 +63 x#1#28 +43 x#1#27
  +79 x#1#26 +96 x#1#25 +28 x#1#24 +50 x#1#23 +78 x#1#22 +86 x#1#21
  +38 x#1#20 +5 x#1#19 +19 x#1#18 +41 x#1#17 +85 x#1#16 +33 x#1#15
  +20 x#1#14 +8 x#1#13 +33 x#1#12 +19 x#1#11 +26 x#1#10 +25 x#1#9
  +92 x#1#8 +21 x#1#7 +81 x#1#6 +58 x#1#5 +98 x#1#4 +13 x#1#3
  +61 x#1#2 +92 x#1#1 <= 266
 cap_2:
  +45 x#1#50 +32 x#1#49 +36 x#1#48 +58 x#1#47 +88 x#1#46 +60 x#1#45
  +5 x#1#44 +39 x#1#43 +20 x#1#42 +9 x#1#41 +70 x#1#40 +47 x#1#39
  +67 x#1#38 +63 x#1#37 +34 x#1#36 +37 x#1#35 +82 x#1#34 +53 x#1#33
  +65 x#1#32 +87 x#1#31 +26 x#1#30 +98 x#1#29 +40 x#1#28 +34 x#1#27
  +15 x#1#26 +25 x#1#25 +51 x#1#24 +99 x#1#23 +33 x#1#22 +73 x#1#21
  +6 x#1#20 +44 x#1#19 +62 x#1#18 +22 x#1#17 +95 x#1#16 +54 x#1#15
  +82 x#1#14 +79 x#1#13 +100 x#1#12 +59 x#1#11 +2 x#1#10 +78 x#1#9
  +93 x#1#8 +28 x#1#7 +33 x#1#6 +6 x#1#5 +35 x#1#4 +80 x#1#3
  +41 x#1#2 +40 x#1#1 <= 236
 cap_3:
  +9 x#2#50 +62 x#2#49 +53 x#2#48 +89 x#2#47 +85 x#2#46 +3 x#2#45
  +39 x#2#44 +93 x#2#43 +56 x#2#42 +20 x#2#41 +28 x#2#40 +39 x#2#39
  +87 x#2#38 +89 x#2#37 +92 x#2#36 +43 x#2#35 +71 x#2#34 +47 x#2#33
  +95 x#2#32 +34 x#2#31 +72 x#2#30 +24 x#2#29 +63 x#2#28 +43 x#2#27
  +79 x#2#26 +96 x#2#25 +28 x#2#24 +50 x#2#23 +78 x#2#22 +86 x#2#21
  +38 x#2#20 +5 x#2#19 +19 x#2#18 +41 x#2#17 +85 x#2#16 +33 x#2#15
  +20 x#2#14 +8 x#2#13 +33 x#2#12 +19 x#2#11 +26 x#2#10 +25 x#2#9
  +92 x#2#8 +21 x#2#7 +81 x#2#6 +58 x#2#5 +98 x#2#4 +13 x#2#3
  +61 x#2#2 +92 x#2#1 <= 261
 cap_4:
  +45 x#2#50 +32 x#2#49 +36 x#2#48 +58 x#2#47 +88 x#2#46 +60 x#2#45
  +5 x#2#44 +39 x#2#43 +20 x#2#42 +9 x#2#41 +70 x#2#40 +47 x#2#39
  +67 x#2#38 +63 x#2#37 +34 x#2#36 +37 x#2#35 +82 x#2#34 +53 x#2#33
  +65 x#2#32 +87 x#2#31 +26 x#2#30 +98 x#2#29 +40 x#2#28 +34 x#2#27
  +15 x#2#26 +25 x#2#25 +51 x#2#24 +99 x#2#23 +33 x#2#22 +73 x#2#21
  +6 x#2#20 +44 x#2#19 +62 x#2#18 +22 x#2#17 +95 x#2#16 +54 x#2#15
  +82 x#2#14 +79 x#2#13 +100 x#2#12 +59 x#2#11 +2 x#2#10 +78 x#2#9
  +93 x#2#8 +28 x#2#7 +33 x#2#6 +6 x#2#5 +35 x#2#4 +80 x#2#3
  +41 x#2#2 +40 x#2#1 <= 247
 cap_5:
  +9 x#3#50 +62 x#3#49 +53 x#3#48 +89 x#3#47 +85 x#3#46 +3 x#3#45
  +39 x#3#44 +93 x#3#43 +56 x#3#42 +20 x#3#41 +28 x#3#40 +39 x#3#39
  +87 x#3#38 +89 x#3#37 +92 x#3#36 +43 x#3#35 +71 x#3#34 +47 x#3#33
  +95 x#3#32 +34 x#3#31 +72 x#3#30 +24 x#3#29 +63 x#3#28 +43 x#3#27
  +79 x#3#26 +96 x#3#25 +28 x#3#24 +50 x#3#23 +78 x#3#22 +86 x#3#21
  +38 x#3#20 +5 x#3#19 +19 x#3#18 +41 x#3#17 +85 x#3#16 +33 x#3#15
  +20 x#3#14 +8 x#3#13 +33 x#3#12 +19 x#3#11 +26 x#3#10 +25 x#3#9
  +92 x#3#8 +21 x#3#7 +81 x#3#6 +58 x#3#5 +98 x#3#4 +13 x#3#3
  +61 x#3#2 +92 x#3#1 <= 214
 cap_6:
  +45 x#3#50 +32 x#3#49 +36 x#3#48 +58 x#3#47 +88 x#3#46 +60 x#3#45
  +5 x#3#44 +39 x#3#43 +20 x#3#42 +9 x#3#41 +70 x#3#40 +47 x#3#39
  +67 x#3#38 +63 x#3#37 +34 x#3#36 +37 x#3#35 +82 x#3#34 +53 x#3#33
  +65 x#3#32 +87 x#3#31 +26 x#3#30 +98 x#3#29 +40 x#3#28 +34 x#3#27
  +15 x#3#26 +25 x#3#25 +51 x#3#24 +99 x#3#23 +33 x#3#22 +73 x#3#21
  +6 x#3#20 +44 x#3#19 +62 x#3#18 +22 x#3#17 +95 x#3#16 +54 x#3#15
  +82 x#3#14 +79 x#3#13 +100 x#3#12 +59 x#3#11 +2 x#3#10 +78 x#3#9
  +93 x#3#8 +28 x#3#7 +33 x#3#6 +6 x#3#5 +35 x#3#4 +80 x#3#3
  +41 x#3#2 +40 x#3#1 <= 214
 cap_7:
  +9 x#4#50 +62 x#4#49 +53 x#4#48 +89 x#4#47 +85 x#4#46 +3 x#4#45
  +39 x#4#44 +93 x#4#43 +56 x#4#42 +20 x#4#41 +28 x#4#40 +39 x#4#39
  +87 x#4#38 +89 x#4#37 +92 x#4#36 +43 x#4#35 +71 x#4#34 +47 x#4#33
  +95 x#4#32 +34 x#4#31 +72 x#4#30 +24 x#4#29 +63 x#4#28 +43 x#4#27
  +79 x#4#26 +96 x#4#25 +28 x#4#24 +50 x#4#23 +78 x#4#22 +86 x#4#21
  +38 x#4#20 +5 x#4#19 +19 x#4#18 +41 x#4#17 +85 x#4#16 +33 x#4#15
  +20 x#4#14 +8 x#4#13 +33 x#4#12 +19 x#4#11 +26 x#4#10 +25 x#4#9
  +92 x#4#8 +21 x#4#7 +81 x#4#6 +58 x#4#5 +98 x#4#4 +13 x#4#3
  +61 x#4#2 +92 x#4#1 <= 252
 cap_8:
  +45 x#4#50 +32 x#4#49 +36 x#4#48 +58 x#4#47 +88 x#4#46 +60 x#4#45
  +5 x#4#44 +39 x#4#43 +20 x#4#42 +9 x#4#41 +70 x#4#40 +47 x#4#39
  +67 x#4#38 +63 x#4#37 +34 x#4#36 +37 x#4#35 +82 x#4#34 +53 x#4#33
  +65 x#4#32 +87 x#4#31 +26 x#4#30 +98 x#4#29 +40 x#4#28 +34 x#4#27
  +15 x#4#26 +25 x#4#25 +51 x#4#24 +99 x#4#23 +33 x#4#22 +73 x#4#21
  +6 x#4#20 +44 x#4#19 +62 x#4#18 +22 x#4#17 +95 x#4#16 +54 x#4#15
  +82 x#4#14 +79 x#4#13 +100 x#4#12 +59 x#4#11 +2 x#4#10 +78 x#4#9
  +93 x#4#8 +28 x#4#7 +33 x#4#6 +6 x#4#5 +35 x#4#4 +80 x#4#3
  +41 x#4#2 +40 x#4#1 <= 301
 cap_9:
  +9 x#5#50 +62 x#5#49 +53 x#5#48 +89 x#5#47 +85 x#5#46 +3 x#5#45
  +39 x#5#44 +93 x#5#43 +56 x#5#42 +20 x#5#41 +28 x#5#40 +39 x#5#39
  +87 x#5#38 +89 x#5#37 +92 x#5#36 +43 x#5#35 +71 x#5#34 +47 x#5#33
  +95 x#5#32 +34 x#5#31 +72 x#5#30 +24 x#5#29 +63 x#5#28 +43 x#5#27
  +79 x#5#26 +96 x#5#25 +28 x#5#24 +50 x#5#23 +78 x#5#22 +86 x#5#21
  +38 x#5#20 +5 x#5#19 +19 x#5#18 +41 x#5#17 +85 x#5#16 +33 x#5#15
  +20 x#5#14 +8 x#5#13 +33 x#5#12 +19 x#5#11 +26 x#5#10 +25 x#5#9
  +92 x#5#8 +21 x#5#7 +81 x#5#6 +58 x#5#5 +98 x#5#4 +13 x#5#3
  +61 x#5#2 +92 x#5#1 <= 814
 cap_10:
  +45 x#5#50 +32 x#5#49 +36 x#5#48 +58 x#5#47 +88 x#5#46 +60 x#5#45
  +5 x#5#44 +39 x#5#43 +20 x#5#42 +9 x#5#41 +70 x#5#40 +47 x#5#39
  +67 x#5#38 +63 x#5#37 +34 x#5#36 +37 x#5#35 +82 x#5#34 +53 x#5#33
  +65 x#5#32 +87 x#5#31 +26 x#5#30 +98 x#5#29 +40 x#5#28 +34 x#5#27
  +15 x#5#26 +25 x#5#25 +51 x#5#24 +99 x#5#23 +33 x#5#22 +73 x#5#21
  +6 x#5#20 +44 x#5#19 +62 x#5#18 +22 x#5#17 +95 x#5#16 +54 x#5#15
  +82 x#5#14 +79 x#5#13 +100 x#5#12 +59 x#5#11 +2 x#5#10 +78 x#5#9
  +93 x#5#8 +28 x#5#7 +33 x#5#6 +6 x#5#5 +35 x#5#4 +80 x#5#3
  +41 x#5#2 +40 x#5#1 <= 766
 one_1:
  + x#5#1 + x#4#1 + x#3#1 + x#2#1 + x#1#1 <= 1
 one_2:
  + x#5#2 + x#4#2 + x#3#2 + x#2#2 + x#1#2 <= 1
 one_3:
  + x#5#3 + x#4#3 + x#3#3 + x#2#3 + x#1#3 <= 1
 one_4:
  + x#5#4 + x#4#4 + x#3#4 + x#2#4 + x#1#4 <= 1
 one_5:
  + x#5#5 + x#4#5 + x#3#5 + x#2#5 + x#1#5 <= 1
 one_6:
  + x#5#6 + x#4#6 + x#3#6 + x#2#6 + x#1#6 <= 1
 one_7:
  + x#5#7 + x#4#7 + x#3#7 + x#2#7 + x#1#7 <= 1
 one_8:
  + x#5#8 + x#4#8 + x#3#8 + x#2#8 + x#1#8 <= 1
 one_9:
  + x#5#9 + x#4#9 + x#3#9 + x#2#9 + x#1#9 <= 1
 one_10:
  + x#5#10 + x#4#10 + x#3#10 + x#2#10 + x#1#10 <= 1
 one_11:
  + x#5#11 + x#4#11 + x#3#11 + x#2#11 + x#1#11 <= 1
 one_12:
  + x#5#12 + x#4#12 + x#3#12 + x#2#12 + x#1#12 <= 1
 one_13:
  + x#5#13 + x#4#13 + x#3#13 + x#2#13 + x#1#13 <= 1
 one_14:
  + x#5#14 + x#4#14 + x#3#14 + x#2#14 + x#1#14 <= 1
 one_15:
  + x#5#15 + x#4#15 + x#3#15 + x#2#15 + x#1#15 <= 1
 one_16:
  + x#5#16 + x#4#16 + x#3#16 + x#2#16 + x#1#16 <= 1
 one_17:
  + x#5#17 + x#4#17 + x#3#17 + x#2#17 + x#1#17 <= 1
 one_18:
  + x#5#18 + x#4#18 + x#3#18 + x#2#18 + x#1#18 <= 1
 one_19:
  + x#5#19 + x#4#19 + x#3#19 + x#2#19 + x#1#19 <= 1
 one_20:
  + x#5#20 + x#4#20 + x#3#20 + x#2#20 + x#1#20 <= 1
 one_21:
  + x#5#21 + x#4#21 + x#3#21 + x#2#21 + x#1#21 <= 1
 one_22:
  + x#5#22 + x#4#22 + x#3#22 + x#2#22 + x#1#22 <= 1
 one_23:
  + x#5#23 + x#4#23 + x#3#23 + x#2#23 + x#1#23 <= 1
 one_24:
  + x#5#24 + x#4#24 + x#3#24 + x#2#24 + x#1#24 <= 1
 one_25:
  + x#5#25 + x#4#25 + x#3#25 + x#2#25 + x#1#25 <= 1
 one_26:
  + x#5#26 + x#4#26 + x#3#26 + x#2#26 + x#1#26 <= 1
 one_27:
  + x#5#27 + x#4#27 + x#3#27 + x#2#27 + x#1#27 <= 1
 one_28:
  + x#5#28 + x#4#28 + x#3#28 + x#2#28 + x#1#28 <= 1
 one_29:
  + x#5#29 + x#4#29 + x#3#29 + x#2#29 + x#1#29 <= 1
 one_30:
  + x#5#30 + x#4#30 + x#3#30 + x#2#30 + x#1#30 <= 1
 one_31:
  + x#5#31 + x#4#31 + x#3#31 + x#2#31 + x#1#31 <= 1
 one_32:
  + x#5#32 + x#4#32 + x#3#32 + x#2#32 + x#1#32 <= 1
 one_33:
  + x#5#33 + x#4#33 + x#3#33 + x#2#33 + x#1#33 <= 1
 one_34:
  + x#5#34 + x#4#34 + x#3#34 + x#2#34 + x#1#34 <= 1
 one_35:
  + x#5#35 + x#4#35 + x#3#35 + x#2#35 + x#1#35 <= 1
 one_36:
  + x#5#36 + x#4#36 + x#3#36 + x#2#36 + x#1#36 <= 1
 one_37:
  + x#5#37 + x#4#37 + x#3#37 + x#2#37 + x#1#37 <= 1
 one_38:
  + x#5#38 + x#4#38 + x#3#38 + x#2#38 + x#1#38 <= 1
 one_39:
  + x#5#39 + x#4#39 + x#3#39 + x#2#39 + x#1#39 <= 1
 one_40:
  + x#5#40 + x#4#40 + x#3#40 + x#2#40 + x#1#40 <= 1
 one_41:
  + x#5#41 + x#4#41 + x#3#41 + x#2#41 + x#1#41 <= 1
 one_42:
  + x#5#42 + x#4#42 + x#3#42 + x#2#42 + x#1#42 <= 1
 one_43:
  + x#5#43 + x#4#43 + x#3#43 + x#2#43 + x#1#43 <= 1
 one_44:
  + x#5#44 + x#4#44 + x#3#44 + x#2#44 + x#1#44 <= 1
 one_45:
  + x#5#45 + x#4#45 + x#3#45 + x#2#45 + x#1#45 <= 1
 one_46:
  + x#5#46 + x#4#46 + x#3#46 + x#2#46 + x#1#46 <= 1
 one_47:
  + x#5#47 + x#4#47 + x#3#47 + x#2#47 + x#1#47 <= 1
 one_48:
  + x#5#48 + x#4#48 + x#3#48 + x#2#48 + x#1#48 <= 1
 one_49:
  + x#5#49 + x#4#49 + x#3#49 + x#2#49 + x#1#49 <= 1
 one_50:
  + x#5#50 + x#4#50 + x#3#50 + x#2#50 + x#1#50 <= 1
Bounds
 0 <= x#1#1 <= 1
 0 <= x#1#2 <= 1
 0 <= x#1#3 <= 1
 0 <= x#1#4 <= 1
 0 <= x#1#5 <= 1
 0 <= x#1#6 <= 1
 0 <= x#1#7 <= 1
 0 <= x#1#8 <= 1
 0 <= x#1#9 <= 1
 0 <= x#1#10 <= 1
 0 <= x#1#11 <= 1
 0 <= x#1#12 <= 1
 0 <= x#1#13 <= 1
 0 <= x#1#14 <= 1
 0 <= x#1#15 <= 1
 0 <= x#1#16 <= 1
 0 <= x#1#17 <= 1
 0 <= x#1#18 <= 1
 0 <= x#1#19 <= 1
 0 <= x#1#20 <= 1
 0 <= x#1#21 <= 1
 0 <= x#1#22 <= 1
 0 <= x#1#23 <= 1
 0 <= x#1#24 <= 1
 0 <= x#1#25 <= 1
 0 <= x#1#26 <= 1
 0 <= x#1#27 <= 1
 0 <= x#1#28 <= 1
 0 <= x#1#29 <= 1
 0 <= x#1#30 <= 1
 0 <= x#1#31 <= 1
 0 <= x#1#32 <= 1
 0 <= x#1#33 <= 1
 0 <= x#1#34 <= 1
 0 <= x#1#35 <= 1
 0 <= x#1#36 <= 1
 0 <= x#1#37 <= 1
 0 <= x#1#38 <= 1
 0 <= x#1#39 <= 1
 0 <= x#1#40 <= 1
 0 <= x#1#41 <= 1
 0 <= x#1#42 <= 1
 0 <= x#1#43 <= 1
 0 <= x#1#44 <= 1
 0 <= x#1#45 <= 1
 0 <= x#1#46 <= 1
 0 <= x#1#47 <= 1
 0 <= x#1#48 <= 1
 0 <= x#1#49 <= 1
 0 <= x#1#50 <= 1
 0 <= x#2#1 <= 1
 0 <= x#2#2 <= 1
 0 <= x#2#3 <= 1
 0 <= x#2#4 <= 1
 0 <= x#2#5 <= 1
 0 <= x#2#6 <= 1
 0 <= x#2#7 <= 1
 0 <= x#2#8 <= 1
 0 <= x#2#9 <= 1
 0 <= x#2#10 <= 1
 0 <= x#2#11 <= 1
 0 <= x#2#12 <= 1
 0 <= x#2#13 <= 1
 0 <= x#2#14 <= 1
 0 <= x#2#15 <= 1
 0 <= x#2#16 <= 1
 0 <= x#2#17 <= 1
 0 <= x#2#18 <= 1
 0 <= x#2#19 <= 1
 0 <= x#2#20 <= 1
 0 <= x#2#21 <= 1
 0 <= x#2#22 <= 1
 0 <= x#2#23 <= 1
 0 <= x#2#24 <= 1
 0 <= x#2#25 <= 1
 0 <= x#2#26 <= 1
 0 <= x#2#27 <= 1
 0 <= x#2#28 <= 1
 0 <= x#2#29 <= 1
 0 <= x#2#30 <= 1
 0 <= x#2#31 <= 1
 0 <= x#2#32 <= 1
 0 <= x#2#33 <= 1
 0 <= x#2#34 <= 1
 0 <= x#2#35 <= 1
 0 <= x#2#36 <= 1
 0 <= x#2#37 <= 1
 0 <= x#2#38 <= 1
 0 <= x#2#39 <= 1
 0 <= x#2#40 <= 1
 0 <= x#2#41 <= 1
 0 <= x#2#42 <= 1
 0 <= x#2#43 <= 1
 0 <= x#2#44 <= 1
 0 <= x#2#45 <= 1
 0 <= x#2#46 <= 1
 0 <= x#2#47 <= 1
 0 <= x#2#48 <= 1
 0 <= x#2#49 <= 1
 0 <= x#2#50 <= 1
 0 <= x#3#1 <= 1
 0 <= x#3#2 <= 1
 0 <= x#3#3 <= 1
 0 <= x#3#4 <= 1
 0 <= x#3#5 <= 1
 0 <= x#3#6 <= 1
 0 <= x#3#7 <= 1
 0 <= x#3#8 <= 1
 0 <= x#3#9 <= 1
 0 <= x#3#10 <= 1
 0 <= x#3#11 <= 1
 0 <= x#3#12 <= 1
 0 <= x#3#13 <= 1
 0 <= x#3#14 <= 1
 0 <= x#3#15 <= 1
 0 <= x#3#16 <= 1
 0 <= x#3#17 <= 1
 0 <= x#3#18 <= 1
 0 <= x#3#19 <= 1
 0 <= x#3#20 <= 1
 0 <= x#3#21 <= 1
 0 <= x#3#22 <= 1
 0 <= x#3#23 <= 1
 0 <= x#3#24 <= 1
 0 <= x#3#25 <= 1
 0 <= x#3#26 <= 1
 0 <= x#3#27 <= 1
 0 <= x#3#28 <= 1
 0 <= x#3#29 <= 1
 0 <= x#3#30 <= 1
 0 <= x#3#31 <= 1
 0 <= x#3#32 <= 1
 0 <= x#3#33 <= 1
 0 <= x#3#34 <= 1
 0 <= x#3#35 <= 1
 0 <= x#3#36 <= 1
 0 <= x#3#37 <= 1
 0 <= x#3#38 <= 1
 0 <= x#3#39 <= 1
 0 <= x#3#40 <= 1
 0 <= x#3#41 <= 1
 0 <= x#3#42 <= 1
 0 <= x#3#43 <= 1
 0 <= x#3#44 <= 1
 0 <= x#3#45 <= 1
 0 <= x#3#46 <= 1
 0 <= x#3#47 <= 1
 0 <= x#3#48 <= 1
 0 <= x#3#49 <= 1
 0 <= x#3#50 <= 1
 0 <= x#4#1 <= 1
 0 <= x#4#2 <= 1
 0 <= x#4#3 <= 1
 0 <= x#4#4 <= 1
 0 <= x#4#5 <= 1
 0 <= x#4#6 <= 1
 0 <= x#4#7 <= 1
 0 <= x#4#8 <= 1
 0 <= x#4#9 <= 1
 0 <= x#4#10 <= 1
 0 <= x#4#11 <= 1
 0 <= x#4#12 <= 1
 0 <= x#4#13 <= 1
 0 <= x#4#14 <= 1
 0 <= x#4#15 <= 1
 0 <= x#4#16 <= 1
 0 <= x#4#17 <= 1
 0 <= x#4#18 <= 1
 0 <= x#4#19 <= 1
 0 <= x#4#20 <= 1
 0 <= x#4#21 <= 1
 0 <= x#4#22 <= 1
 0 <= x#4#23 <= 1
 0 <= x#4#24 <= 1
 0 <= x#4#25 <= 1
 0 <= x#4#26 <= 1
 0 <= x#4#27 <= 1
 0 <= x#4#28 <= 1
 0 <= x#4#29 <= 1
 0 <= x#4#30 <= 1
 0 <= x#4#31 <= 1
 0 <= x#4#32 <= 1
 0 <= x#4#33 <= 1
 0 <= x#4#34 <= 1
 0 <= x#4#35 <= 1
 0 <= x#4#36 <= 1
 0 <= x#4#37 <= 1
 0 <= x#4#38 <= 1
 0 <= x#4#39 <= 1
 0 <= x#4#40 <= 1
 0 <= x#4#41 <= 1
 0 <= x#4#42 <= 1
 0 <= x#4#43 <= 1
 0 <= x#4#44 <= 1
 0 <= x#4#45 <= 1
 0 <= x#4#46 <= 1
 0 <= x#4#47 <= 1
 0 <= x#4#48 <= 1
 0 <= x#4#49 <= 1
 0 <= x#4#50 <= 1
 0 <= x#5#1 <= 1
 0 <= x#5#2 <= 1
 0 <= x#5#3 <= 1
 0 <= x#5#4 <= 1
 0 <= x#5#5 <= 1
 0 <= x#5#6 <= 1
 0 <= x#5#7 <= 1
 0 <= x#5#8 <= 1
 0 <= x#5#9 <= 1
 0 <= x#5#10 <= 1
 0 <= x#5#11 <= 1
 0 <= x#5#12 <= 1
 0 <= x#5#13 <= 1
 0 <= x#5#14 <= 1
 0 <= x#5#15 <= 1
 0 <= x#5#16 <= 1
 0 <= x#5#17 <= 1
 0 <= x#5#18 <= 1
 0 <= x#5#19 <= 1
 0 <= x#5#20 <= 1
 0 <= x#5#21 <= 1
 0 <= x#5#22 <= 1
 0 <= x#5#23 <= 1
 0 <= x#5#24 <= 1
 0 <= x#5#25 <= 1
 0 <= x#5#26 <= 1
 0 <= x#5#27 <= 1
 0 <= x#5#28 <= 1
 0 <= x#5#29 <= 1
 0 <= x#5#30 <= 1
 0 <= x#5#31 <= 1
 0 <= x#5#32 <= 1
 0 <= x#5#33 <= 1
 0 <= x#5#34 <= 1
 0 <= x#5#35 <= 1
 0 <= x#5#36 <= 1
 0 <= x#5#37 <= 1
 0 <= x#5#38 <= 1
 0 <= x#5#39 <= 1
 0 <= x#5#40 <= 1
 0 <= x#5#41 <= 1
 0 <= x#5#42 <= 1
 0 <= x#5#43 <= 1
 0 <= x#5#44 <= 1
 0 <= x#5#45 <= 1
 0 <= x#5#46 <= 1
 0 <= x#5#47 <= 1
 0 <= x#5#48 <= 1
 0 <= x#5#49 <= 1
 0 <= x#5#50 <= 1
General
 x#1#1
 x#1#2
 x#1#3
 x#1#4
 x#1#5
 x#1#6
 x#1#7
 x#1#8
 x#1#9
 x#1#10
 x#1#11
 x#1#12
 x#1#13
 x#1#14
 x#1#15
 x#1#16
 x#1#17
 x#1#18
 x#1#19
 x#1#20
 x#1#21
 x#1#22
 x#1#23
 x#1#24
 x#1#25
 x#1#26
 x#1#27
 x#1#28
 x#1#29
 x#1#30
 x#1#31
 x#1#32
 x#1#33
 x#1#34
 x#1#35
 x#1#36
 x#1#37
 x#1#38
 x#1#39
 x#1#40
 x#1#41
 x#1#42
 x#1#43
 x#1#44
 x#1#45
 x#1#46
 x#1#47
 x#1#48
 x#1#49
 x#1#50
 x#2#1
 x#2#2
 x#2#3
 x#2#4
 x#2#5
 x#2#6
 x#2#7
 x#2#8
 x#2#9
 x#2#10
 x#2#11
 x#2#12
 x#2#13
 x#2#14
 x#2#15
 x#2#16
 x#2#17
 x#2#18
 x#2#19
 x#2#20
 x#2#21
 x#2#22
 x#2#23
 x#2#24
 x#2#25
 x#2#26
 x#2#27
 x#2#28
 x#2#29
 x#2#30
 x#2#31
 x#2#32
 x#2#33
 x#2#34
 x#2#35
 x#2#36
 x#2#37
 x#2#38
 x#2#39
 x#2#40
 x#2#41
 x#2#42
 x#2#43
 x#2#44
 x#2#45
 x#2#46
 x#2#47
 x#2#48
 x#2#49
 x#2#50
 x#3#1
 x#3#2
 x#3#3
 x#3#4
 x#3#5
 x#3#6
 x#3#7
 x#3#8
 x#3#9
 x#3#10
 x#3#11
 x#3#12
 x#3#13
 x#3#14
 x#3#15
 x#3#16
 x#3#17
 x#3#18
 x#3#19
 x#3#20
 x#3#21
 x#3#22
 x#3#23
 x#3#24
 x#3#25
 x#3#26
 x#3#27
 x#3#28
 x#3#29
 x#3#30
 x#3#31
 x#3#32
 x#3#33
 x#3#34
 x#3#35
 x#3#36
 x#3#37
 x#3#38
 x#3#39
 x#3#40
 x#3#41
 x#3#42
 x#3#43
 x#3#44
 x#3#45
 x#3#46
 x#3#47
 x#3#48
 x#3#49
 x#3#50
 x#4#1
 x#4#2
 x#4#3
 x#4#4
 x#4#5
 x#4#6
 x#4#7
 x#4#8
 x#4#9
 x#4#10
 x#4#11
 x#4#12
 x#4#13
 x#4#14
 x#4#15
 x#4#16
 x#4#17
 x#4#18
 x#4#19
 x#4#20
 x#4#21
 x#4#22
 x#4#23
 x#4#24
 x#4#25
 x#4#26
 x#4#27
 x#4#28
 x#4#29
 x#4#30
 x#4#31
 x#4#32
 x#4#33
 x#4#34
 x#4#35
 x#4#36
 x#4#37
 x#4#38
 x#4#39
 x#4#40
 x#4#41
 x#4#42
 x#4#43
 x#4#44
 x#4#45
 x#4#46
 x#4#47
 x#4#48
 x#4#49
 x#4#50
 x#5#1
 x#5#2
 x#5#3
 x#5#4
 x#5#5
 x#5#6
 x#5#7
 x#5#8
 x#5#9
 x#5#10
 x#5#11
 x#5#12
 x#5#13
 x#5#14
 x#5#15
 x#5#16
 x#5#17
 x#5#18
 x#5#19
 x#5#20
 x#5#21
 x#5#22
 x#5#23
 x#5#24
 x#5#25
 x#5#26
 x#5#27
 x#5#28
 x#5#29
 x#5#30
 x#5#31
 x#5#32
 x#5#33
 x#5#34
 x#5#35
 x#5#36
 x#5#37
 x#5#38
 x#5#39
 x#5#40
 x#5#41
 x#5#42
 x#5#43
 x#5#44
 x#5#45
 x#5#46
 x#5#47
 x#5#48
 x#5#49
 x#5#50
End
